
--- Job hw5-2.gms Start 10/20/23 00:45:50 44.3.0 8b8fb1cb WEX-WEI x86 64bit/MS Windows
--- Applying:
    C:\GAMS\44\gmsprmNT.txt
--- GAMS Parameters defined
    Input C:\Users\Rocke\OneDrive\Documents\isye524\hw\hw5\hw5-2.gms
    PageSize 0
    ScrDir C:\Users\Rocke\OneDrive\Documents\isye524\hw\hw5\225a\
    SysDir C:\GAMS\44\
    LogOption 3
    ErrMsg 1
    ErrorLog 99
    IDE 1
    LstTitleLeftAligned 1
Licensee: Introduction to Optimization (CS/ISyE/ECE 524) G230906|0002AS-GEN
          UW-Madison, CS Dept., Fall 2023, Prof. Ferris              DCE850
          C:\GAMS\44\gamslice.txt
          License Admin: Michael C. Ferris, ferris@cs.wisc.edu             
          Course license for use within the course and related course work
Processor information: 1 socket(s), 4 core(s), and 8 thread(s) available
GAMS 44.3.0   Copyright (C) 1987-2023 GAMS Development. All rights reserved
--- Starting compilation
--- hw5-2.gms(63) 3 Mb
--- $echo File C:\Users\Rocke\OneDrive\Documents\isye524\hw\hw5\cplex.opt
--- hw5-2.gms(78) 3 Mb
--- Starting execution: elapsed 0:00:00.011
--- hw5-2.gms(32) 4 Mb
--- Generating LP model short
--- hw5-2.gms(52) 4 Mb
---   24 rows  67 columns  129 non-zeroes
--- Range statistics (absolute non-zero finite values)
--- RHS       [min, max] : [ 1.000E+00, 1.000E+00] - Zero values observed as well
--- Bound     [min, max] : [        NA,        NA] - Zero values observed as well
--- Matrix    [min, max] : [ 1.000E+00, 1.800E+03]
--- Executing CPLEX (Solvelink=2): elapsed 0:00:00.023

IBM ILOG CPLEX   44.3.0 8b8fb1cb Sep 1, 2023           WEI x86 64bit/MS Window

--- GAMS/CPLEX licensed for continuous and discrete problems.
--- GMO setup time: 0.00s
--- GMO memory 0.51 Mb (peak 0.51 Mb)
--- Dictionary memory 0.00 Mb
--- Cplex 22.1.1.0 link memory 0.00 Mb (peak 0.01 Mb)
--- Starting Cplex

Version identifier: 22.1.1.0 | 2022-11-27 | 9160aff4d
CPXPARAM_Advance                                 0
CPXPARAM_Simplex_Display                         2
CPXPARAM_Threads                                 1
CPXPARAM_MIP_Display                             4
CPXPARAM_MIP_Pool_Capacity                       0
CPXPARAM_MIP_Tolerances_AbsMIPGap                0
Tried aggregator 1 time.
LP Presolve eliminated 15 rows and 59 columns.
Aggregator did 8 substitutions.
All rows and columns eliminated.
Presolve time = 0.00 sec. (0.02 ticks)

--- LP status (1): optimal.
--- Cplex Time: 0.00sec (det. 0.03 ticks)


Optimal solution found
Objective:         1780.000000

--- Reading solution for model short
--- Executing after solve: elapsed 0:00:00.107
--- hw5-2.gms(68) 4 Mb
*** Status: Normal completion
--- Job hw5-2.gms Stop 10/20/23 00:45:50 elapsed 0:00:00.108
